10  5
 1 10  4  8  2 16  0 10  3  4   4 146   5
 0  7  3 11  2 13  4  4  1  4  10 147   5
 3  4  4 11  2 11  1  7  0  3  32 173   5
 0  7  1  8  2 12  3 11  4  8  16 156   5
 4  4  0 11  2 10  3  8  1  4   9 161   5
 1  8  3  3  2 14  4  7  0  7   1 160  10
 0  5  4 10  2 10  3  4  1 10   5 163   5
 0  9  1  6  2 13  4  8  3  8  13 143   5
 1 10  4  3  2 13  0  3  3 11  10 159   5
 3  5  0 10  2 15  4 10  1  8   8 156   5
